language Essence 1.3

letting blksize_delta be function(1 --> 3, 2 --> 4, 3 --> 3, 4 --> 4, 5 --> 4, 6 --> 6, 7 --> 4)
letting maxcars be function(1 --> 10, 2 --> 10, 3 --> 9, 4 --> 9, 5 --> 9, 6 --> 10, 7 --> 9)
letting n_cars be 300
letting n_classes be 121
letting n_options be 7
letting quantity be
        function(1 --> 6, 2 --> 2, 3 --> 23, 4 --> 7, 5 --> 2, 6 --> 28, 7 --> 2, 8 --> 4, 9 --> 2, 10 --> 2, 11 --> 2,
                 12 --> 2, 13 --> 2, 14 --> 2, 15 --> 2, 16 --> 2, 17 --> 2, 18 --> 2, 19 --> 2, 20 --> 2, 21 --> 2,
                 22 --> 2, 23 --> 2, 24 --> 2, 25 --> 2, 26 --> 2, 27 --> 2, 28 --> 2, 29 --> 2, 30 --> 2, 31 --> 2,
                 32 --> 2, 33 --> 2, 34 --> 2, 35 --> 2, 36 --> 2, 37 --> 2, 38 --> 2, 39 --> 2, 40 --> 2, 41 --> 2,
                 42 --> 2, 43 --> 2, 44 --> 2, 45 --> 2, 46 --> 2, 47 --> 2, 48 --> 2, 49 --> 2, 50 --> 2, 51 --> 2,
                 52 --> 2, 53 --> 2, 54 --> 2, 55 --> 2, 56 --> 2, 57 --> 2, 58 --> 2, 59 --> 2, 60 --> 2, 61 --> 2,
                 62 --> 2, 63 --> 2, 64 --> 2, 65 --> 2, 66 --> 2, 67 --> 2, 68 --> 2, 69 --> 2, 70 --> 2, 71 --> 2,
                 72 --> 2, 73 --> 2, 74 --> 2, 75 --> 2, 76 --> 2, 77 --> 2, 78 --> 2, 79 --> 2, 80 --> 2, 81 --> 2,
                 82 --> 2, 83 --> 2, 84 --> 2, 85 --> 2, 86 --> 2, 87 --> 2, 88 --> 2, 89 --> 2, 90 --> 2, 91 --> 2,
                 92 --> 2, 93 --> 2, 94 --> 2, 95 --> 2, 96 --> 2, 97 --> 2, 98 --> 2, 99 --> 2, 100 --> 2, 101 --> 2,
                 102 --> 2, 103 --> 2, 104 --> 2, 105 --> 2, 106 --> 2, 107 --> 2, 108 --> 2, 109 --> 2, 110 --> 2,
                 111 --> 2, 112 --> 2, 113 --> 2, 114 --> 2, 115 --> 2, 116 --> 2, 117 --> 2, 118 --> 2, 119 --> 2,
                 120 --> 2, 121 --> 2)
letting usage be
        relation((1, 1), (1, 3), (1, 5), (1, 6), (2, 3), (2, 6), (3, 2), (3, 4), (3, 5), (4, 1), (4, 2), (4, 3), (4, 4),
                 (4, 5), (5, 5), (5, 6), (5, 7), (6, 2), (6, 3), (6, 5), (6, 6), (6, 7), (7, 3), (7, 7), (8, 3), (9, 2),
                 (10, 2), (11, 2), (11, 6), (12, 4), (12, 5), (13, 1), (13, 4), (13, 5), (13, 6), (14, 1), (14, 2),
                 (14, 5), (14, 7), (15, 4), (15, 6), (16, 1), (16, 3), (17, 1), (18, 1), (18, 2), (18, 3), (18, 4),
                 (18, 6), (19, 3), (19, 4), (19, 5), (19, 6), (19, 7), (20, 2), (20, 3), (21, 1), (21, 2), (21, 5),
                 (22, 1), (22, 5), (22, 7), (23, 1), (23, 4), (24, 2), (24, 3), (24, 4), (24, 7), (25, 2), (25, 3),
                 (25, 4), (25, 6), (26, 1), (26, 4), (26, 6), (26, 7), (27, 1), (27, 3), (27, 4), (27, 6), (28, 1),
                 (28, 2), (28, 3), (28, 7), (29, 1), (29, 6), (29, 7), (30, 1), (30, 2), (30, 5), (31, 1), (31, 4),
                 (31, 5), (31, 6), (31, 7), (32, 1), (32, 3), (32, 4), (32, 5), (33, 1), (33, 6), (33, 7), (34, 1),
                 (34, 2), (34, 7), (35, 1), (35, 3), (35, 4), (35, 5), (35, 7), (36, 2), (36, 3), (37, 1), (37, 3),
                 (37, 4), (37, 6), (37, 7), (38, 3), (38, 4), (38, 5), (39, 1), (39, 3), (39, 4), (40, 1), (40, 3),
                 (41, 3), (41, 4), (41, 7), (42, 5), (43, 7), (44, 1), (44, 4), (45, 1), (45, 4), (45, 5), (45, 7),
                 (46, 4), (46, 6), (47, 7), (48, 4), (48, 6), (49, 1), (49, 4), (49, 7), (50, 2), (50, 7), (51, 5),
                 (52, 1), (52, 2), (52, 3), (52, 4), (52, 7), (53, 4), (53, 6), (53, 7), (54, 7), (55, 2), (55, 3),
                 (55, 5), (56, 6), (57, 2), (57, 4), (57, 5), (58, 2), (58, 3), (59, 4), (59, 6), (60, 3), (60, 5),
                 (60, 6), (60, 7), (61, 2), (61, 4), (62, 2), (63, 2), (63, 5), (63, 6), (64, 7), (65, 7), (66, 1),
                 (66, 2), (66, 3), (66, 7), (67, 1), (67, 3), (67, 4), (68, 1), (69, 1), (69, 5), (69, 6), (70, 1),
                 (70, 4), (70, 6), (70, 7), (71, 1), (71, 3), (71, 4), (71, 6), (71, 7), (72, 4), (72, 6), (72, 7),
                 (73, 1), (73, 4), (73, 5), (74, 6), (74, 7), (75, 1), (75, 2), (75, 3), (75, 4), (75, 5), (75, 7),
                 (76, 1), (76, 4), (76, 6), (77, 2), (77, 4), (78, 1), (78, 2), (78, 4), (79, 1), (79, 3), (79, 5),
                 (79, 6), (80, 1), (80, 2), (80, 3), (80, 5), (81, 1), (81, 3), (81, 4), (81, 7), (82, 2), (82, 6),
                 (83, 3), (84, 1), (85, 2), (85, 5), (86, 1), (86, 3), (86, 4), (86, 7), (87, 1), (87, 4), (87, 5),
                 (88, 2), (88, 4), (89, 1), (89, 3), (89, 5), (89, 6), (89, 7), (90, 4), (90, 6), (91, 7), (92, 1),
                 (92, 2), (92, 5), (92, 7), (93, 7), (94, 2), (94, 3), (94, 5), (94, 7), (95, 6), (95, 7), (96, 4),
                 (97, 6), (97, 7), (98, 1), (98, 2), (98, 4), (98, 7), (99, 1), (99, 2), (99, 6), (100, 5), (101, 5),
                 (101, 6), (102, 2), (102, 3), (102, 4), (102, 5), (103, 2), (104, 2), (104, 3), (104, 4), (104, 5),
                 (104, 6), (104, 7), (105, 3), (105, 7), (106, 1), (106, 2), (106, 3), (106, 7), (107, 3), (107, 4),
                 (107, 5), (107, 6), (107, 7), (108, 6), (108, 7), (109, 2), (109, 5), (109, 6), (109, 7), (110, 1),
                 (110, 2), (110, 4), (110, 5), (110, 6), (110, 7), (111, 3), (111, 4), (111, 7), (112, 4), (112, 6),
                 (112, 7), (113, 1), (113, 5), (113, 7), (114, 1), (114, 3), (114, 7), (115, 1), (115, 4), (115, 5),
                 (115, 7), (116, 2), (116, 3), (116, 4), (116, 7), (117, 1), (117, 3), (117, 5), (117, 7), (118, 2),
                 (118, 4), (118, 7), (119, 1), (119, 4), (119, 7), (120, 1), (120, 3), (120, 5), (120, 7), (121, 1),
                 (121, 2), (121, 3), (121, 4), (121, 5), (121, 6), (121, 7))
$ Visualisation for usage
$   1   1
$   1   3
$   1   5
$   1   6
$   2   3
$   2   6
$   3   2
$   3   4
$   3   5
$   4   1
$   4   2
$   4   3
$   4   4
$   4   5
$   5   5
$   5   6
$   5   7
$   6   2
$   6   3
$   6   5
$   6   6
$   6   7
$   7   3
$   7   7
$   8   3
$   9   2
$  10   2
$  11   2
$  11   6
$  12   4
$  12   5
$  13   1
$  13   4
$  13   5
$  13   6
$  14   1
$  14   2
$  14   5
$  14   7
$  15   4
$  15   6
$  16   1
$  16   3
$  17   1
$  18   1
$  18   2
$  18   3
$  18   4
$  18   6
$  19   3
$  19   4
$  19   5
$  19   6
$  19   7
$  20   2
$  20   3
$  21   1
$  21   2
$  21   5
$  22   1
$  22   5
$  22   7
$  23   1
$  23   4
$  24   2
$  24   3
$  24   4
$  24   7
$  25   2
$  25   3
$  25   4
$  25   6
$  26   1
$  26   4
$  26   6
$  26   7
$  27   1
$  27   3
$  27   4
$  27   6
$  28   1
$  28   2
$  28   3
$  28   7
$  29   1
$  29   6
$  29   7
$  30   1
$  30   2
$  30   5
$  31   1
$  31   4
$  31   5
$  31   6
$  31   7
$  32   1
$  32   3
$  32   4
$  32   5
$  33   1
$  33   6
$  33   7
$  34   1
$  34   2
$  34   7
$  35   1
$  35   3
$  35   4
$  35   5
$  35   7
$  36   2
$  36   3
$  37   1
$  37   3
$  37   4
$  37   6
$  37   7
$  38   3
$  38   4
$  38   5
$  39   1
$  39   3
$  39   4
$  40   1
$  40   3
$  41   3
$  41   4
$  41   7
$  42   5
$  43   7
$  44   1
$  44   4
$  45   1
$  45   4
$  45   5
$  45   7
$  46   4
$  46   6
$  47   7
$  48   4
$  48   6
$  49   1
$  49   4
$  49   7
$  50   2
$  50   7
$  51   5
$  52   1
$  52   2
$  52   3
$  52   4
$  52   7
$  53   4
$  53   6
$  53   7
$  54   7
$  55   2
$  55   3
$  55   5
$  56   6
$  57   2
$  57   4
$  57   5
$  58   2
$  58   3
$  59   4
$  59   6
$  60   3
$  60   5
$  60   6
$  60   7
$  61   2
$  61   4
$  62   2
$  63   2
$  63   5
$  63   6
$  64   7
$  65   7
$  66   1
$  66   2
$  66   3
$  66   7
$  67   1
$  67   3
$  67   4
$  68   1
$  69   1
$  69   5
$  69   6
$  70   1
$  70   4
$  70   6
$  70   7
$  71   1
$  71   3
$  71   4
$  71   6
$  71   7
$  72   4
$  72   6
$  72   7
$  73   1
$  73   4
$  73   5
$  74   6
$  74   7
$  75   1
$  75   2
$  75   3
$  75   4
$  75   5
$  75   7
$  76   1
$  76   4
$  76   6
$  77   2
$  77   4
$  78   1
$  78   2
$  78   4
$  79   1
$  79   3
$  79   5
$  79   6
$  80   1
$  80   2
$  80   3
$  80   5
$  81   1
$  81   3
$  81   4
$  81   7
$  82   2
$  82   6
$  83   3
$  84   1
$  85   2
$  85   5
$  86   1
$  86   3
$  86   4
$  86   7
$  87   1
$  87   4
$  87   5
$  88   2
$  88   4
$  89   1
$  89   3
$  89   5
$  89   6
$  89   7
$  90   4
$  90   6
$  91   7
$  92   1
$  92   2
$  92   5
$  92   7
$  93   7
$  94   2
$  94   3
$  94   5
$  94   7
$  95   6
$  95   7
$  96   4
$  97   6
$  97   7
$  98   1
$  98   2
$  98   4
$  98   7
$  99   1
$  99   2
$  99   6
$ 100   5
$ 101   5
$ 101   6
$ 102   2
$ 102   3
$ 102   4
$ 102   5
$ 103   2
$ 104   2
$ 104   3
$ 104   4
$ 104   5
$ 104   6
$ 104   7
$ 105   3
$ 105   7
$ 106   1
$ 106   2
$ 106   3
$ 106   7
$ 107   3
$ 107   4
$ 107   5
$ 107   6
$ 107   7
$ 108   6
$ 108   7
$ 109   2
$ 109   5
$ 109   6
$ 109   7
$ 110   1
$ 110   2
$ 110   4
$ 110   5
$ 110   6
$ 110   7
$ 111   3
$ 111   4
$ 111   7
$ 112   4
$ 112   6
$ 112   7
$ 113   1
$ 113   5
$ 113   7
$ 114   1
$ 114   3
$ 114   7
$ 115   1
$ 115   4
$ 115   5
$ 115   7
$ 116   2
$ 116   3
$ 116   4
$ 116   7
$ 117   1
$ 117   3
$ 117   5
$ 117   7
$ 118   2
$ 118   4
$ 118   7
$ 119   1
$ 119   4
$ 119   7
$ 120   1
$ 120   3
$ 120   5
$ 120   7
$ 121   1
$ 121   2
$ 121   3
$ 121   4
$ 121   5
$ 121   6
$ 121   7

